\LP file generated from the problem `Slots selection' by the
\Xpress Builder Component Library Xpress BCL

Minimize
obj: 1.00084e+006 WR_(0) + 415 WR_(1) + 1.0003e+006 WR_(2) + 189 WR_(3) + 192 WR_(4) + 
170 WR_(5) + 1.00011e+006 WR_(6) + 181 WR_(7) + 126 WR_(8) + 54 WR_(9) + 74 WR_(10) + 
1.00006e+006 WR_(11) + 1.00003e+006 WR_(12) + 1.00003e+006 WR_(13) + 1.00007e+006 WR_(14) + 
1.00005e+006 WR_(15) + 1.00006e+006 WR_(16) + 1.00003e+006 WR_(17) + 1.00003e+006 WR_(18) + 
1.00002e+006 WR_(19) + 1.00001e+006 WR_(20) + 1.00001e+006 WR_(21) + 1.00003e+006 WR_(22) + 
1.00003e+006 WR_(23)

Subject To
slot_15: = 0
slot_14: = 0
slot_13: = 0
slot_12: WR_(2) + WR_(23) = 1
slot_11: WR_(0) + WR_(22) = 1
slot_10: WR_(7) + WR_(8) + WR_(21) = 1
slot_9: WR_(7) + WR_(8) + WR_(9) + WR_(10) + WR_(11) + WR_(20) = 1
slot_8: WR_(7) + WR_(8) + WR_(9) + WR_(19) = 1
slot_7: WR_(7) + WR_(8) + WR_(10) + WR_(18) = 1
slot_6: WR_(7) + WR_(17) = 1
slot_5: WR_(1) + WR_(16) = 1
slot_4: WR_(1) + WR_(3) + WR_(4) + WR_(5) + WR_(6) + WR_(15) = 1
slot_3: WR_(1) + WR_(4) + WR_(14) = 1
slot_2: WR_(1) + WR_(3) + WR_(4) + WR_(5) + WR_(13) = 1
slot_1: WR_(1) + WR_(3) + WR_(12) = 1
slot: = 0

Bounds

Binaries
WR_(0) WR_(1) WR_(2) WR_(3) WR_(4) WR_(5) WR_(6) WR_(7) WR_(8) WR_(9) WR_(10) 
WR_(11) WR_(12) WR_(13) WR_(14) WR_(15) WR_(16) WR_(17) WR_(18) WR_(19) WR_(20) 
WR_(21) WR_(22) WR_(23) 

End
